(set-logic QF_SLIA)
(set-option :produce-models true)
(declare-const X String)
; /filename\=[a-z0-9]{24}\.exe/H
(assert (not (str.in_re X (re.++ (str.to_re "/filename=") ((_ re.loop 24 24) (re.union (re.range "a" "z") (re.range "0" "9"))) (str.to_re ".exe/H\u{0a}")))))
; ^( [1-9]|[1-9]|0[1-9]|10|11|12)[0-5]\d$
(assert (str.in_re X (re.++ (re.union (re.++ (str.to_re " ") (re.range "1" "9")) (re.range "1" "9") (re.++ (str.to_re "0") (re.range "1" "9")) (str.to_re "10") (str.to_re "11") (str.to_re "12")) (re.range "0" "5") (re.range "0" "9") (str.to_re "\u{0a}"))))
; ^((\+)?(\d{2}[-]))?([0])?(\d{10}){1}?$
(assert (str.in_re X (re.++ (re.opt (re.++ (re.opt (str.to_re "+")) ((_ re.loop 2 2) (re.range "0" "9")) (str.to_re "-"))) (re.opt (str.to_re "0")) ((_ re.loop 1 1) ((_ re.loop 10 10) (re.range "0" "9"))) (str.to_re "\u{0a}"))))
; Host\x3A\w+www.*ToolbartheServer\x3Awww\x2Esearchreslt\x2Ecom
(assert (not (str.in_re X (re.++ (str.to_re "Host:") (re.+ (re.union (re.range "0" "9") (re.range "A" "Z") (re.range "a" "z") (str.to_re "_"))) (str.to_re "www") (re.* re.allchar) (str.to_re "ToolbartheServer:www.searchreslt.com\u{0a}")))))
; 1?[ \.\-\+]?[(]?([0-9]{3})?[)]?[ \.\-\+]?[0-9]{3}[ \.\-\+]?[0-9]{4}
(assert (not (str.in_re X (re.++ (re.opt (str.to_re "1")) (re.opt (re.union (str.to_re " ") (str.to_re ".") (str.to_re "-") (str.to_re "+"))) (re.opt (str.to_re "(")) (re.opt ((_ re.loop 3 3) (re.range "0" "9"))) (re.opt (str.to_re ")")) (re.opt (re.union (str.to_re " ") (str.to_re ".") (str.to_re "-") (str.to_re "+"))) ((_ re.loop 3 3) (re.range "0" "9")) (re.opt (re.union (str.to_re " ") (str.to_re ".") (str.to_re "-") (str.to_re "+"))) ((_ re.loop 4 4) (re.range "0" "9")) (str.to_re "\u{0a}")))))
(assert (> (str.len X) 10))
(check-sat)
